36 10
8 451
2 499
4 61
2 608
8 514
2 426
5 236
4 508
2 502
4 655
8 486
5 133
7 396
8 473
5 729
2 262
4 383
9 723
8 958
6 672
7 156
6 185
9 743
9 268
1 848
1 788
6 73
8 560
8 848
4 227
4 773
3 504
9 390
5 743
1 387
8 262
